/*********************************************
 * OPL 12.5 Data
 * Author: user_2
 * Creation Date: Feb 1, 2023 at 2:19:02 PM
 *********************************************/
np=16;
nk=10;
utility= [ 41, 21, 96, 10, 66, 13, 55, 96, 73, 17, 8, 91, 67, 54, 34, 98];
weights= [8,4,15,5,7,12,12,19,8,4,1,1,2,4,5,9];
capacity=[ 1837, 1828, 9383, 83838, 27738, 68118, 12260, 74653, 15626, 73736];